10	10
1	15	114	389	3	1	1	441	18	17
252	1	4	512	107	1	1	120	1	1
1	218	406	8	38	6	2	28	17	276
335	8	277	3	1	366	2	1	6	1
1	26	1	1	523	1	47	1	329	70
79	1	1	1	3	83	605	71	53	103
1	1	190	7	12	6	1	1	337	444
1	494	5	12	1	2	338	1	65	81
52	195	1	63	1	356	2	323	1	6
277	41	1	4	311	178	1	13	173	1
